NAME : gaussian_missing_edges_with_de_seg1_seg2_seg3_random50.3176.tour
COMMENT : Length = 3176
COMMENT : Found by LKH [Keld Helsgaun] Fri Jul 12 16:32:53 2024
TYPE : TOUR
DIMENSION : 50
TOUR_SECTION
1
22
35
44
29
20
10
38
37
21
14
43
45
12
50
17
2
28
5
18
46
11
3
7
27
48
26
25
36
41
34
4
47
30
6
9
19
24
13
32
39
40
8
16
49
33
31
42
15
23
-1
EOF
